InboundTrucks  = 8;
OutboundTrucks = 5;
InboundDoors   = 2;
OutboundDoors  = 1;
ReleaseTime    = [1,7,3,3,6,5,6,2];
UnloadTime     = [10,6,3,8,8,3,6,9];
LoadTime       = [9,4,9,3,10];
TransferTime   = [| 0,0,0,0,2 | 0,0,0,5,1 | 4,0,0,2,0 | 2,0,0,0,0 | 5,0,0,2,0 | 0,1,0,0,0 | 0,0,4,0,0 | 0,0,2,0,0 |];
